NAME : 50_4_04.53346.tour
COMMENT : Cost = 0_53346
COMMENT : Found by LKH [Keld Helsgaun] Thu Sep 14 11:08:21 2017
TYPE : TOUR
DIMENSION : 54
TOUR_SECTION
1
38
13
52
51
2
45
9
4
3
11
48
40
47
7
6
54
5
12
49
8
29
32
30
24
34
23
33
31
35
41
42
43
53
10
46
37
50
28
44
19
18
22
20
17
21
25
15
26
39
36
27
14
16
-1
EOF
